c File: data_files/evolved_graphs/g0347.col
c
c Auto generated graph
c
p edge 100 1302
e 1 25
e 1 27
e 1 28
e 1 30
e 1 31
e 1 32
e 1 33
e 1 34
e 1 35
e 1 36
e 1 37
e 1 38
e 1 39
e 1 40
e 1 43
e 1 44
e 1 51
e 1 52
e 1 53
e 1 68
e 2 6
e 2 20
e 2 25
e 2 26
e 2 27
e 2 28
e 2 29
e 2 30
e 2 31
e 2 32
e 2 33
e 2 34
e 2 35
e 2 36
e 2 38
e 2 39
e 2 40
e 2 43
e 2 44
e 2 45
e 2 46
e 2 48
e 2 49
e 2 50
e 2 52
e 2 55
e 2 97
e 3 5
e 3 25
e 3 26
e 3 27
e 3 28
e 3 29
e 3 30
e 3 31
e 3 32
e 3 33
e 3 34
e 3 36
e 3 37
e 3 38
e 3 39
e 3 40
e 3 43
e 3 48
e 3 49
e 3 50
e 3 52
e 3 53
e 3 74
e 3 75
e 3 76
e 3 77
e 3 78
e 3 79
e 3 80
e 3 81
e 3 82
e 3 83
e 3 84
e 3 85
e 3 86
e 3 87
e 3 92
e 3 93
e 3 98
e 4 25
e 4 26
e 4 27
e 4 28
e 4 29
e 4 30
e 4 31
e 4 32
e 4 33
e 4 34
e 4 36
e 4 37
e 4 38
e 4 39
e 4 40
e 4 43
e 4 46
e 4 47
e 4 48
e 4 51
e 4 72
e 4 74
e 4 75
e 4 76
e 4 77
e 4 78
e 4 79
e 4 80
e 4 81
e 4 82
e 4 83
e 4 84
e 4 85
e 4 86
e 4 87
e 4 96
e 4 98
e 4 99
e 4 100
e 5 25
e 5 26
e 5 27
e 5 28
e 5 29
e 5 30
e 5 31
e 5 32
e 5 33
e 5 34
e 5 35
e 5 36
e 5 37
e 5 38
e 5 39
e 5 40
e 5 42
e 5 44
e 5 45
e 5 46
e 5 47
e 5 49
e 5 50
e 5 52
e 5 54
e 5 63
e 5 66
e 5 74
e 5 75
e 5 76
e 5 77
e 5 78
e 5 79
e 5 80
e 5 81
e 5 82
e 5 83
e 5 84
e 5 85
e 5 86
e 5 87
e 5 92
e 5 100
e 6 24
e 6 25
e 6 26
e 6 27
e 6 28
e 6 29
e 6 30
e 6 31
e 6 32
e 6 33
e 6 34
e 6 35
e 6 36
e 6 37
e 6 38
e 6 39
e 6 40
e 6 43
e 6 50
e 6 51
e 6 53
e 6 55
e 6 69
e 6 72
e 6 74
e 6 75
e 6 76
e 6 77
e 6 78
e 6 79
e 6 80
e 6 81
e 6 82
e 6 83
e 6 84
e 6 85
e 6 86
e 6 87
e 6 91
e 6 96
e 6 100
e 7 9
e 7 25
e 7 26
e 7 27
e 7 28
e 7 29
e 7 30
e 7 31
e 7 32
e 7 33
e 7 34
e 7 35
e 7 36
e 7 37
e 7 38
e 7 39
e 7 40
e 7 41
e 7 42
e 7 45
e 7 47
e 7 51
e 7 52
e 7 53
e 7 54
e 7 55
e 7 65
e 7 67
e 7 74
e 7 75
e 7 76
e 7 77
e 7 78
e 7 79
e 7 80
e 7 81
e 7 82
e 7 83
e 7 84
e 7 85
e 7 86
e 7 87
e 7 91
e 8 15
e 8 24
e 8 25
e 8 26
e 8 27
e 8 28
e 8 29
e 8 30
e 8 31
e 8 32
e 8 33
e 8 34
e 8 35
e 8 36
e 8 37
e 8 38
e 8 39
e 8 40
e 8 41
e 8 44
e 8 45
e 8 47
e 8 48
e 8 49
e 8 50
e 8 51
e 8 53
e 8 54
e 8 55
e 8 64
e 8 67
e 8 68
e 8 73
e 8 74
e 8 75
e 8 76
e 8 77
e 8 78
e 8 79
e 8 80
e 8 81
e 8 82
e 8 83
e 8 84
e 8 85
e 8 86
e 8 87
e 8 93
e 8 94
e 8 99
e 8 100
e 9 24
e 9 26
e 9 27
e 9 28
e 9 29
e 9 30
e 9 31
e 9 32
e 9 33
e 9 34
e 9 35
e 9 36
e 9 37
e 9 38
e 9 39
e 9 40
e 9 41
e 9 43
e 9 45
e 9 47
e 9 48
e 9 50
e 9 51
e 9 53
e 9 55
e 9 69
e 9 74
e 9 75
e 9 76
e 9 77
e 9 78
e 9 79
e 9 80
e 9 81
e 9 82
e 9 83
e 9 84
e 9 85
e 9 86
e 9 87
e 9 90
e 9 91
e 9 94
e 9 96
e 9 100
e 10 17
e 10 25
e 10 26
e 10 27
e 10 28
e 10 29
e 10 30
e 10 31
e 10 32
e 10 33
e 10 34
e 10 35
e 10 36
e 10 37
e 10 38
e 10 39
e 10 40
e 10 41
e 10 42
e 10 47
e 10 48
e 10 49
e 10 54
e 10 74
e 10 75
e 10 76
e 10 77
e 10 78
e 10 79
e 10 80
e 10 81
e 10 82
e 10 83
e 10 84
e 10 85
e 10 86
e 10 87
e 10 92
e 10 97
e 10 98
e 11 13
e 11 14
e 11 25
e 11 26
e 11 27
e 11 28
e 11 29
e 11 30
e 11 31
e 11 32
e 11 33
e 11 34
e 11 35
e 11 36
e 11 37
e 11 38
e 11 39
e 11 40
e 11 41
e 11 42
e 11 44
e 11 47
e 11 50
e 11 51
e 11 52
e 11 60
e 11 74
e 11 75
e 11 76
e 11 77
e 11 78
e 11 79
e 11 80
e 11 81
e 11 82
e 11 83
e 11 84
e 11 85
e 11 86
e 11 87
e 11 91
e 11 95
e 11 100
e 12 18
e 12 25
e 12 26
e 12 27
e 12 28
e 12 29
e 12 30
e 12 31
e 12 32
e 12 33
e 12 34
e 12 35
e 12 36
e 12 37
e 12 38
e 12 39
e 12 40
e 12 43
e 12 48
e 12 49
e 12 52
e 12 58
e 12 70
e 12 74
e 12 75
e 12 76
e 12 77
e 12 78
e 12 79
e 12 80
e 12 81
e 12 82
e 12 83
e 12 84
e 12 85
e 12 86
e 12 87
e 12 93
e 12 95
e 13 25
e 13 27
e 13 28
e 13 29
e 13 30
e 13 31
e 13 32
e 13 33
e 13 34
e 13 35
e 13 36
e 13 37
e 13 38
e 13 39
e 13 40
e 13 42
e 13 43
e 13 47
e 13 49
e 13 50
e 13 52
e 13 53
e 13 55
e 13 74
e 13 75
e 13 76
e 13 77
e 13 78
e 13 79
e 13 80
e 13 81
e 13 82
e 13 83
e 13 84
e 13 85
e 13 86
e 13 87
e 13 91
e 13 92
e 13 94
e 13 95
e 13 99
e 13 100
e 14 16
e 14 25
e 14 27
e 14 28
e 14 29
e 14 30
e 14 31
e 14 32
e 14 33
e 14 34
e 14 35
e 14 36
e 14 37
e 14 38
e 14 39
e 14 40
e 14 41
e 14 47
e 14 50
e 14 52
e 14 53
e 14 55
e 14 63
e 14 71
e 14 74
e 14 75
e 14 76
e 14 77
e 14 78
e 14 79
e 14 80
e 14 81
e 14 82
e 14 83
e 14 84
e 14 85
e 14 86
e 14 87
e 14 94
e 14 97
e 14 98
e 15 25
e 15 27
e 15 28
e 15 29
e 15 30
e 15 31
e 15 32
e 15 33
e 15 34
e 15 35
e 15 36
e 15 37
e 15 38
e 15 39
e 15 40
e 15 43
e 15 45
e 15 46
e 15 47
e 15 50
e 15 53
e 15 55
e 15 74
e 15 75
e 15 76
e 15 77
e 15 78
e 15 79
e 15 80
e 15 81
e 15 82
e 15 83
e 15 84
e 15 85
e 15 86
e 15 87
e 15 91
e 15 94
e 15 95
e 15 98
e 16 25
e 16 27
e 16 28
e 16 29
e 16 30
e 16 31
e 16 32
e 16 33
e 16 34
e 16 35
e 16 36
e 16 37
e 16 38
e 16 39
e 16 40
e 16 41
e 16 47
e 16 48
e 16 49
e 16 51
e 16 52
e 16 60
e 16 63
e 16 74
e 16 75
e 16 76
e 16 77
e 16 78
e 16 79
e 16 80
e 16 81
e 16 82
e 16 83
e 16 84
e 16 85
e 16 86
e 16 87
e 16 92
e 16 93
e 16 96
e 16 97
e 16 100
e 17 25
e 17 27
e 17 28
e 17 29
e 17 30
e 17 31
e 17 32
e 17 33
e 17 34
e 17 35
e 17 36
e 17 37
e 17 38
e 17 39
e 17 40
e 17 42
e 17 48
e 17 49
e 17 52
e 17 53
e 17 54
e 17 55
e 17 74
e 17 75
e 17 76
e 17 77
e 17 78
e 17 79
e 17 80
e 17 81
e 17 82
e 17 83
e 17 84
e 17 85
e 17 86
e 17 87
e 17 89
e 17 90
e 17 92
e 17 96
e 17 97
e 17 99
e 18 25
e 18 26
e 18 27
e 18 28
e 18 29
e 18 30
e 18 31
e 18 32
e 18 33
e 18 34
e 18 35
e 18 36
e 18 37
e 18 38
e 18 39
e 18 40
e 18 42
e 18 44
e 18 45
e 18 49
e 18 50
e 18 51
e 18 54
e 18 55
e 18 57
e 18 74
e 18 75
e 18 76
e 18 77
e 18 78
e 18 79
e 18 80
e 18 81
e 18 82
e 18 83
e 18 84
e 18 85
e 18 86
e 18 87
e 18 94
e 18 95
e 18 96
e 19 25
e 19 26
e 19 27
e 19 28
e 19 29
e 19 30
e 19 31
e 19 32
e 19 33
e 19 34
e 19 35
e 19 36
e 19 37
e 19 38
e 19 39
e 19 40
e 19 41
e 19 42
e 19 43
e 19 44
e 19 45
e 19 46
e 19 47
e 19 48
e 19 49
e 19 50
e 19 51
e 19 52
e 19 53
e 19 54
e 19 55
e 19 59
e 19 64
e 19 74
e 19 75
e 19 76
e 19 77
e 19 78
e 19 79
e 19 80
e 19 81
e 19 82
e 19 83
e 19 84
e 19 85
e 19 86
e 19 87
e 19 91
e 19 95
e 20 25
e 20 26
e 20 27
e 20 28
e 20 29
e 20 30
e 20 31
e 20 32
e 20 33
e 20 34
e 20 35
e 20 36
e 20 37
e 20 38
e 20 39
e 20 40
e 20 41
e 20 42
e 20 43
e 20 44
e 20 45
e 20 46
e 20 47
e 20 48
e 20 49
e 20 50
e 20 51
e 20 52
e 20 53
e 20 54
e 20 74
e 20 75
e 20 76
e 20 77
e 20 78
e 20 79
e 20 80
e 20 81
e 20 82
e 20 83
e 20 84
e 20 85
e 20 86
e 20 87
e 20 89
e 20 90
e 20 93
e 20 96
e 20 97
e 20 98
e 20 100
e 21 25
e 21 26
e 21 27
e 21 28
e 21 29
e 21 30
e 21 31
e 21 32
e 21 33
e 21 34
e 21 35
e 21 36
e 21 37
e 21 38
e 21 39
e 21 40
e 21 41
e 21 42
e 21 43
e 21 44
e 21 45
e 21 46
e 21 47
e 21 48
e 21 49
e 21 50
e 21 51
e 21 52
e 21 53
e 21 54
e 21 55
e 21 59
e 21 74
e 21 75
e 21 76
e 21 77
e 21 78
e 21 79
e 21 80
e 21 81
e 21 82
e 21 83
e 21 84
e 21 85
e 21 86
e 21 87
e 21 89
e 21 92
e 21 96
e 21 99
e 22 39
e 22 42
e 22 43
e 22 45
e 22 47
e 22 49
e 22 50
e 22 51
e 22 52
e 22 53
e 22 54
e 22 55
e 22 56
e 22 57
e 22 58
e 22 59
e 22 60
e 22 61
e 22 62
e 22 63
e 22 64
e 22 65
e 22 66
e 22 89
e 22 92
e 22 94
e 22 97
e 22 98
e 22 100
e 23 35
e 23 37
e 23 38
e 23 43
e 23 49
e 23 50
e 23 51
e 23 52
e 23 53
e 23 54
e 23 55
e 23 56
e 23 57
e 23 58
e 23 59
e 23 60
e 23 61
e 23 62
e 23 63
e 23 64
e 23 65
e 23 66
e 23 86
e 23 94
e 23 98
e 24 29
e 24 31
e 24 34
e 24 35
e 24 36
e 24 39
e 24 42
e 24 43
e 24 45
e 24 47
e 24 49
e 24 50
e 24 51
e 24 52
e 24 53
e 24 54
e 24 55
e 24 56
e 24 57
e 24 59
e 24 60
e 24 61
e 24 62
e 24 63
e 24 64
e 24 65
e 24 66
e 24 67
e 24 69
e 24 91
e 24 92
e 24 97
e 24 98
e 24 100
e 25 34
e 25 35
e 25 39
e 25 40
e 25 92
e 25 94
e 25 96
e 25 97
e 25 98
e 25 99
e 25 100
e 26 34
e 26 35
e 26 36
e 26 37
e 26 42
e 26 43
e 26 44
e 26 45
e 26 91
e 26 95
e 26 96
e 27 32
e 27 41
e 27 42
e 27 47
e 27 48
e 27 90
e 27 91
e 27 95
e 27 97
e 28 35
e 28 36
e 28 37
e 28 38
e 28 45
e 28 91
e 28 100
e 29 32
e 29 33
e 29 37
e 29 41
e 29 42
e 29 44
e 29 91
e 29 92
e 29 97
e 30 32
e 30 35
e 30 37
e 30 38
e 30 39
e 30 43
e 30 46
e 30 47
e 30 54
e 30 93
e 30 96
e 30 97
e 30 100
e 31 32
e 31 35
e 31 36
e 31 46
e 31 48
e 31 90
e 31 92
e 31 97
e 31 99
e 32 41
e 32 90
e 32 94
e 32 97
e 32 99
e 32 100
e 33 38
e 33 40
e 33 43
e 33 92
e 33 96
e 33 98
e 33 100
e 34 90
e 34 97
e 34 99
e 35 38
e 35 40
e 35 42
e 35 95
e 35 96
e 36 39
e 36 45
e 36 95
e 38 43
e 38 95
e 39 96
e 40 44
e 40 91
e 40 94
e 40 95
e 40 100
e 41 47
e 41 72
e 41 73
e 41 74
e 41 75
e 41 77
e 41 88
e 41 90
e 41 92
e 41 96
e 41 100
e 42 73
e 42 80
e 42 85
e 42 87
e 42 92
e 42 94
e 42 97
e 42 100
e 43 45
e 43 72
e 43 73
e 43 76
e 43 87
e 44 75
e 44 78
e 44 80
e 44 83
e 44 84
e 44 85
e 44 88
e 44 93
e 45 46
e 45 74
e 45 77
e 45 79
e 46 75
e 46 79
e 46 80
e 46 88
e 47 75
e 47 78
e 47 79
e 47 80
e 47 83
e 47 88
e 47 89
e 48 72
e 48 75
e 48 85
e 48 86
e 48 87
e 48 88
e 48 89
e 49 86
e 50 75
e 51 67
e 51 68
e 51 79
e 53 60
e 53 69
e 53 76
e 55 69
e 55 86
e 56 57
e 56 85
e 57 61
e 57 86
e 57 89
e 60 63
e 60 80
e 63 71
e 63 87
e 65 73
e 65 82
e 66 78
e 66 87
e 67 84
e 67 94
e 67 95
e 67 96
e 67 97
e 67 98
e 67 99
e 67 100
e 68 89
e 68 94
e 68 95
e 68 96
e 68 98
e 68 99
e 68 100
e 69 74
e 69 75
e 69 81
e 69 94
e 69 95
e 69 96
e 69 97
e 69 98
e 69 99
e 69 100
e 70 82
e 70 94
e 70 95
e 70 96
e 70 97
e 70 98
e 70 99
e 70 100
e 71 94
e 71 95
e 71 96
e 71 97
e 71 98
e 71 99
e 71 100
e 72 89
e 72 94
e 72 95
e 72 96
e 72 97
e 72 98
e 72 99
e 72 100
e 73 85
e 73 94
e 73 95
e 73 96
e 73 97
e 73 98
e 73 99
e 73 100
e 74 76
e 74 83
e 74 91
e 74 94
e 74 95
e 74 96
e 74 97
e 74 98
e 74 99
e 74 100
e 75 94
e 75 95
e 75 96
e 75 97
e 75 98
e 75 99
e 75 100
e 76 77
e 76 94
e 76 95
e 76 96
e 76 97
e 76 98
e 76 99
e 76 100
e 77 94
e 77 95
e 77 96
e 77 97
e 77 98
e 77 99
e 77 100
e 78 83
e 78 94
e 78 95
e 78 96
e 78 97
e 78 98
e 78 99
e 78 100
e 79 94
e 79 95
e 79 96
e 79 97
e 79 98
e 79 99
e 79 100
e 80 94
e 80 95
e 80 96
e 80 97
e 80 98
e 80 99
e 80 100
e 81 86
e 81 94
e 81 95
e 81 96
e 81 97
e 81 98
e 81 99
e 81 100
e 82 94
e 82 95
e 82 96
e 82 97
e 82 98
e 82 99
e 82 100
e 83 94
e 83 95
e 83 96
e 83 97
e 83 98
e 83 99
e 83 100
e 84 94
e 84 95
e 84 96
e 84 97
e 84 98
e 84 99
e 84 100
e 85 95
e 85 96
e 85 97
e 85 98
e 85 99
e 85 100
e 86 94
e 86 100
e 87 94
e 87 95
e 87 96
e 87 97
e 87 98
e 87 99
e 87 100
e 88 90
e 88 94
e 88 96
e 88 97
e 88 98
e 88 99
e 88 100
e 90 100
e 92 97
e 92 100
e 95 98
e 99 100
